c This is an instance of the exact track of PACE 2020 Challenge, see https://pacechallenge.org/2020/ 
c TYPE: biology 
c ORIGIN: http://networkrepository.com/ 
c DESCRIPTION: ENZYMES is a dataset of protein tertiary structures obtained from (Borgwardt et al., 2005)  consisting of 600 enzymes from the BRENDA enzyme database (Schomburg et al., 2004). Refernces: K. M. Borgwardt, C. S. Ong, S. Schoenauer, S. V. N. Vishwanathan, A. J. Smola, and H. P. Kriegel. Protein function prediction via graph kernels. Bioinformatics, 21(Suppl 1):i47–i56, Jun 2005. I. Schomburg, A. Chang, C. Ebeling, M. Gremse, C. Heldt, G. Huhn, and D. Schomburg. Brenda, the enzyme database: updates and major new developments. Nucleic Acids Research, 32D:431–433, 2009 
p tdp 125 141
1 2
1 5
2 3
3 72
4 5
4 7
4 8
5 6
6 7
6 40
7 37
8 77
8 40
9 10
9 65
10 11
10 12
10 13
11 67
12 30
12 86
13 42
13 102
14 15
14 31
14 43
14 56
14 57
15 16
15 17
16 64
18 19
18 81
19 20
20 88
21 22
21 25
22 23
23 89
24 25
24 27
24 28
25 26
26 27
26 52
27 49
28 94
28 40
29 30
29 84
31 32
31 33
32 78
34 35
34 96
35 36
36 104
37 38
38 39
39 105
40 110
40 52
41 42
41 100
43 44
43 45
44 95
46 47
46 112
47 48
48 119
49 50
50 51
51 120
52 125
53 54
53 115
54 55
55 117
56 79
58 59
58 69
59 60
59 61
60 80
61 80
61 111
62 63
62 66
63 64
64 78
64 79
65 66
67 68
68 77
69 70
70 71
71 73
72 75
73 74
74 76
75 76
78 83
78 95
78 79
79 95
79 114
80 81
82 83
82 85
84 85
86 87
87 94
88 90
89 92
90 91
91 93
92 93
95 99
96 97
98 99
98 101
100 101
102 103
103 110
104 106
105 108
106 107
107 109
108 109
111 112
113 114
113 116
115 116
117 118
118 125
119 121
120 123
121 122
122 124
123 124
